n = 30;
m = 6;

G = 
[[0.   0.   0.59 0.02 0.73 0.41 0.43 0.   0.   0.   0.   0.   0.   0.23 0.   0.21 0.   0.94 0.   0.28 0.63 0.79 0.78 0.53 0.   0.   0.39 0.38 0.9  0.72]
 [0.   0.   0.   0.29 0.   0.68 0.59 0.8  0.66 0.   0.87 0.   0.   0.79 0.   0.25 0.26 0.32 0.46 0.6  0.98 0.13 0.   0.34 0.   0.   0.97 0.   1.   0.11]
 [0.59 0.   0.   0.   0.   0.   0.97 0.76 0.86 0.51 0.79 0.   0.46 0.14 0.   0.   0.79 0.74 0.62 0.01 0.   0.7  0.21 0.85 0.   0.6  0.48 0.16 0.   0.  ]
 [0.02 0.29 0.   0.   0.   0.39 0.26 0.34 0.71 0.   0.75 0.95 0.   0.39 0.   0.52 0.   0.79 0.   0.03 0.3  0.99 0.12 0.95 0.31 0.   0.02 0.   0.   0.  ]
 [0.73 0.   0.   0.   0.   0.   0.11 0.72 0.   0.3  0.93 0.27 0.   0.   0.   0.   0.   0.31 0.76 0.97 0.   0.   0.   0.   0.48 0.37 0.82 0.   0.5  0.  ]
 [0.41 0.68 0.   0.39 0.   0.   1.   0.   0.86 0.81 0.91 0.   0.   0.16 0.72 0.   0.3  0.49 0.44 0.   0.47 0.45 0.   0.   0.   0.17 0.09 0.   0.14 0.68]
 [0.43 0.59 0.97 0.26 0.11 1.   0.   0.41 0.98 0.   0.65 0.21 0.   0.96 0.68 0.92 0.   0.   0.51 0.88 0.   0.99 0.52 0.39 0.   0.   0.05 0.06 0.94 0.29]
 [0.   0.8  0.76 0.34 0.72 0.   0.41 0.   0.11 0.   0.63 0.74 0.02 0.68 0.8  0.13 0.   0.   0.   0.3  0.   0.99 0.   0.02 0.07 0.   0.   0.71 0.97 0.35]
 [0.   0.66 0.86 0.71 0.   0.86 0.98 0.11 0.   0.   0.   0.04 0.   0.   0.46 0.   0.27 0.77 0.13 0.   0.37 0.95 0.19 0.52 0.11 0.09 0.58 0.95 0.96 0.  ]
 [0.   0.   0.51 0.   0.3  0.81 0.   0.   0.   0.   0.   0.   0.11 0.   0.53 0.   0.87 0.   0.   0.91 0.   0.   0.1  0.   0.46 0.46 0.   0.   0.   0.1 ]
 [0.   0.87 0.79 0.75 0.93 0.91 0.65 0.63 0.   0.   0.   0.43 0.   0.   0.28 0.61 0.4  0.7  0.85 0.21 0.   0.41 0.35 0.   0.14 0.11 0.9  0.16 0.   0.37]
 [0.   0.   0.   0.95 0.27 0.   0.21 0.74 0.04 0.   0.43 0.   0.6  0.4  0.01 0.94 0.   0.   0.   0.   0.   0.   0.09 0.   0.46 0.89 0.29 0.31 0.76 0.  ]
 [0.   0.   0.46 0.   0.   0.   0.   0.02 0.   0.11 0.   0.6  0.   0.   0.94 0.   0.86 0.82 0.94 0.   0.92 0.   0.   0.   0.97 0.   0.76 0.11 0.   0.  ]
 [0.23 0.79 0.14 0.39 0.   0.16 0.96 0.68 0.   0.   0.   0.4  0.   0.   0.86 0.   0.89 0.31 0.81 0.   0.   0.24 0.09 0.   0.64 0.18 0.71 0.11 0.95 0.  ]
 [0.   0.   0.   0.   0.   0.72 0.68 0.8  0.46 0.53 0.28 0.01 0.94 0.86 0.   0.8  0.   0.   0.   0.   0.   0.85 0.46 0.   0.77 0.   0.   0.   0.2  0.04]
 [0.21 0.25 0.   0.52 0.   0.   0.92 0.13 0.   0.   0.61 0.94 0.   0.   0.8  0.   0.   0.02 0.59 0.03 0.47 0.07 0.   0.   0.89 0.   0.   0.   0.97 0.91]
 [0.   0.26 0.79 0.   0.   0.3  0.   0.   0.27 0.87 0.4  0.   0.86 0.89 0.   0.   0.   0.31 0.57 0.93 0.3  0.   0.75 0.47 0.   0.65 0.84 0.49 0.   0.42]
 [0.94 0.32 0.74 0.79 0.31 0.49 0.   0.   0.77 0.   0.7  0.   0.82 0.31 0.   0.02 0.31 0.   0.   0.   0.93 0.02 0.   0.36 0.93 0.86 0.52 0.   0.27 0.  ]
 [0.   0.46 0.62 0.   0.76 0.44 0.51 0.   0.13 0.   0.85 0.   0.94 0.81 0.   0.59 0.57 0.   0.   0.83 0.16 0.51 0.61 0.74 0.   0.6  0.   0.   0.   0.  ]
 [0.28 0.6  0.01 0.03 0.97 0.   0.88 0.3  0.   0.91 0.21 0.   0.   0.   0.   0.03 0.93 0.   0.83 0.   0.58 0.   0.18 0.67 0.   0.08 0.06 0.43 0.8  0.  ]
 [0.63 0.98 0.   0.3  0.   0.47 0.   0.   0.37 0.   0.   0.   0.92 0.   0.   0.47 0.3  0.93 0.16 0.58 0.   0.49 0.69 0.   0.   0.85 0.83 0.   0.   0.  ]
 [0.79 0.13 0.7  0.99 0.   0.45 0.99 0.99 0.95 0.   0.41 0.   0.   0.24 0.85 0.07 0.   0.02 0.51 0.   0.49 0.   0.25 0.   0.   0.   0.51 0.14 0.   0.  ]
 [0.78 0.   0.21 0.12 0.   0.   0.52 0.   0.19 0.1  0.35 0.09 0.   0.09 0.46 0.   0.75 0.   0.61 0.18 0.69 0.25 0.   0.45 0.   0.1  0.79 0.74 0.   0.06]
 [0.53 0.34 0.85 0.95 0.   0.   0.39 0.02 0.52 0.   0.   0.   0.   0.   0.   0.   0.47 0.36 0.74 0.67 0.   0.   0.45 0.   0.51 0.4  0.73 0.92 0.   0.4 ]
 [0.   0.   0.   0.31 0.48 0.   0.   0.07 0.11 0.46 0.14 0.46 0.97 0.64 0.77 0.89 0.   0.93 0.   0.   0.   0.   0.   0.51 0.   0.   0.   0.89 0.93 0.  ]
 [0.   0.   0.6  0.   0.37 0.17 0.   0.   0.09 0.46 0.11 0.89 0.   0.18 0.   0.   0.65 0.86 0.6  0.08 0.85 0.   0.1  0.4  0.   0.   0.   0.77 0.   0.  ]
 [0.39 0.97 0.48 0.02 0.82 0.09 0.05 0.   0.58 0.   0.9  0.29 0.76 0.71 0.   0.   0.84 0.52 0.   0.06 0.83 0.51 0.79 0.73 0.   0.   0.   0.15 0.47 0.77]
 [0.38 0.   0.16 0.   0.   0.   0.06 0.71 0.95 0.   0.16 0.31 0.11 0.11 0.   0.   0.49 0.   0.   0.43 0.   0.14 0.74 0.92 0.89 0.77 0.15 0.   0.08 0.97]
 [0.9  1.   0.   0.   0.5  0.14 0.94 0.97 0.96 0.   0.   0.76 0.   0.95 0.2  0.97 0.   0.27 0.   0.8  0.   0.   0.   0.   0.93 0.   0.47 0.08 0.   0.  ]
 [0.72 0.11 0.   0.   0.   0.68 0.29 0.35 0.   0.1  0.37 0.   0.   0.   0.04 0.91 0.42 0.   0.   0.   0.   0.   0.06 0.4  0.   0.   0.77 0.97 0.   0.  ]];

H = 
[[0.   0.2  0.   0.   0.4  0.  ]
 [0.2  0.   0.95 0.   0.45 0.39]
 [0.   0.95 0.   0.34 0.64 0.13]
 [0.   0.   0.34 0.   0.45 0.  ]
 [0.4  0.45 0.64 0.45 0.   0.  ]
 [0.   0.39 0.13 0.   0.   0.  ]];
